% demand
num_movements = 46;
loading_factor = [1750, 1900, 1450, 1950, 1050, 1700, 1800, 1650, 1050, 1650, 1950, 1000, 1300, 1550, 1350, 1300, 800, 1000, 950, 1900, 1350, 1750, 1850, 1550, 1850, 900, 1050, 1300, 950, 1500, 1100, 950, 1250, 1250, 1000, 1700, 1200, 1750, 1150, 1600, 1700, 1850, 1700, 2000, 950, 1000];
pickup_time = [0, 0, 0, 0, 0, 1, 2, 4, 4, 4, 4, 4, 5, 5, 5, 7, 7, 7, 7, 7, 7, 7, 8, 8, 8, 8, 8, 9, 9, 9, 9, 9, 9, 9, 9, 9, 10, 11, 11, 11, 11, 12, 12, 12, 12, 12];
delivery_time = [5, 4, 4, 5, 1, 4, 4, 7, 5, 8, 7, 7, 7, 7, 7, 8, 8, 8, 8, 9, 9, 8, 9, 9, 9, 9, 9, 13, 10, 11, 10, 10, 10, 11, 10, 11, 11, 12, 12, 12, 13, 13, 13, 13, 13, 13];

% transporter definition
total_capacity = 11000;
num_decks = 4;
capacity = [3000, 3000, 1000, 4000];

% ways out of decks
num_ways_out = 2;
paths_out = array3d(decks, ways_out, decks, [
% ways out of deck d1
2, 4, 0, 0, 3, 4, 0, 0, 

% ways out of deck d2
4, 0, 0, 0, 0, 0, 0, 0,	

% ways out of deck d3
4, 0, 0, 0, 0, 0, 0, 0,	

% ways out of deck d4
0, 0, 0, 0,	0, 0, 0, 0,	

]);

